minizinc/sudoku_problems2/sudoku_p22.dzn
%
% sudoku_p22.dzn
% See http://www.hakank.org/minizinc/sudoku_gcc.mzn
% 
% This problem is problem 22 from
% Gecode's sudoku.cpp
% http://www.gecode.org/gecode-doc-latest/sudoku_8cpp-source.html
% 
x = array2d(1..n, 1..n, [   
% 22
 10,  _,  _, 15,  _, 23,  _,  _,  _,  _,  _,  _, 22,  2,  8, 13, 12,  _, 21, 18,  7,  _,  _, 24, 19,
  _,  _, 11,  _,  _,  _, 13,  _, 22,  _,  6,  _,  _,  _,  _,  9,  _,  _,  _,  _,  _,  2, 10,  _,  _,
  _,  2,  _,  _, 18,  _,  5,  6,  _, 11,  _,  _,  _, 19,  _, 22, 14, 17,  _,  _,  _,  _,  _,  _,  _,
 24,  7,  _,  _,  _, 17, 14,  _,  _,  _, 11, 10,  _,  _, 16,  2,  _,  _,  _,  _,  _,  _,  _,  _, 21,
  _, 17,  6, 19,  _,  2,  _,  _,  _, 16,  _,  7, 23, 13, 25,  _, 10,  _,  _,  _,  8,  _,  _, 12,  _,
  _, 25, 23,  3,  5,  _,  _, 11,  _,  _,  8,  6,  9,  _,  2,  _, 16, 10,  _,  _, 20,  _, 12,  _,  _,
  _,  _,  _,  _, 14, 22,  1,  3, 24, 13,  _, 23,  _,  _,  _,  4,  9, 20,  _,  _,  _,  7,  _,  _,  _,
  9, 16,  _,  _, 12,  _,  _,  _,  _, 18, 19, 15,  5,  _, 11,  _,  _,  7,  _,  3,  _,  _,  _,  _,  _,
 17, 13,  _,  _,  _,  _,  _, 19, 23,  _,  _,  _,  _,  7,  _,  _,  _, 14, 15,  _,  _,  _,  _,  9,  _,
  1,  _, 24, 10,  _,  _, 16,  _, 20, 21,  _,  _,  _,  _, 17,  _,  _, 11,  _, 12, 25,  _,  _,  _,  _,
  _,  _, 12, 14,  _,  _,  _,  _,  _,  _,  _,  2,  _,  _,  9, 18,  _,  _,  _,  _,  3,  _,  _,  _,  _,
 15, 19,  _,  _,  8,  3, 25,  _, 14,  _,  _, 20,  7,  _, 23, 21,  1,  5, 17,  _,  _, 18,  2,  _,  _,
  _,  4,  _,  _, 16, 19,  _,  _,  _,  6, 13, 18, 11,  _,  _,  _, 25,  _,  _,  _, 10, 17, 21,  _, 12,
  _,  1, 18,  _,  2,  _, 22,  _,  _,  _,  _,  8,  3,  _, 15,  _,  _,  4,  _, 23, 11, 14,  _,  _,  _,
 21,  3, 22,  _, 24, 13,  _, 17,  _, 10, 16,  _,  _,  4,  _,  _,  _,  _,  _,  6,  9,  _,  _,  _, 15,
  _,  8,  _,  _,  _,  5, 17,  _,  3,  _,  _,  _,  _,  _, 22,  _,  _,  _, 13,  _,  _, 20,  _,  _,  4,
  3,  _,  _,  4,  _,  _, 10, 14, 13, 24,  7, 19,  _,  _,  _,  5,  _,  _,  9,  _,  _, 16,  1,  _,  _,
  _,  _,  2, 23,  9,  _,  8, 15,  _, 25,  _, 24, 18, 16, 12,  _, 21,  6,  _,  _, 14,  _, 17,  _,  _,
 12,  _,  _,  _,  1,  _,  7,  _,  _, 20,  _, 21,  6,  _,  4, 14, 24,  _,  8,  _,  5,  _,  _,  _, 23,
  _, 18, 16,  _, 17,  _,  _, 22,  _,  _, 14,  _,  _,  _,  1, 10,  2, 23,  4,  _,  _,  8,  _, 15,  _,
  6,  _,  _,  5, 19,  _,  _, 23,  1,  _,  _,  _,  2,  _,  _, 17,  _, 18, 16, 10,  _,  _,  _, 25,  8,
  _, 21,  _,  _,  _, 24,  _,  _,  _, 17,  _,  _,  _, 12,  _,  _,  _,  _, 22,  5, 16,  _,  _, 10,  _,
  _,  _, 15,  _,  _,  _,  3, 12,  _,  7,  _, 25,  _,  _,  5, 23,  _,  _, 11,  _,  _, 13, 22, 17,  9,
  2,  9,  1, 13,  _,  _,  6,  _,  _, 22,  _,  _, 17,  _,  7,  _,  3,  _, 19,  _, 23,  _,  _, 11,  _,
  _,  _,  _,  _, 22, 20,  _,  _,  2,  9, 15,  _, 16,  _, 13, 24,  4,  _,  _,  _,  6,  _, 14,  3,  5
]);

n = 25;


